    1      35.00      35.00       0.00       0.00     230.00       0.00
    2      41.00      49.00      10.00     161.00     171.00      10.00
    3      35.00      17.00       7.00      50.00      60.00      10.00
    4      55.00      45.00      13.00     116.00     126.00      10.00
    5      55.00      20.00      19.00     149.00     159.00      10.00
    6      15.00      30.00      26.00      34.00      44.00      10.00
    7      25.00      30.00       3.00      99.00     109.00      10.00
    8      20.00      50.00       5.00      81.00      91.00      10.00
    9      10.00      43.00       9.00      95.00     105.00      10.00
   10      55.00      60.00      16.00      97.00     107.00      10.00
   11      30.00      60.00      16.00     124.00     134.00      10.00
   12      20.00      65.00      12.00      67.00      77.00      10.00
   13      50.00      35.00      19.00      63.00      73.00      10.00
   14      30.00      25.00      23.00     159.00     169.00      10.00
   15      15.00      10.00      20.00      32.00      42.00      10.00
   16      30.00       5.00       8.00      61.00      71.00      10.00
   17      10.00      20.00      19.00      75.00      85.00      10.00
   18       5.00      30.00       2.00     157.00     167.00      10.00
   19      20.00      40.00      12.00      87.00      97.00      10.00
   20      15.00      60.00      17.00      76.00      86.00      10.00
   21      45.00      65.00       9.00     126.00     136.00      10.00
   22      45.00      20.00      11.00      62.00      72.00      10.00
   23      45.00      10.00      18.00      97.00     107.00      10.00
   24      55.00       5.00      29.00      68.00      78.00      10.00
   25      65.00      35.00       3.00     153.00     163.00      10.00
   26      65.00      20.00       6.00     172.00     182.00      10.00
   27      45.00      30.00      17.00     132.00     142.00      10.00
   28      35.00      40.00      16.00      37.00      47.00      10.00
   29      41.00      37.00      16.00      39.00      49.00      10.00
   30      64.00      42.00       9.00      63.00      73.00      10.00
   31      40.00      60.00      21.00      71.00      81.00      10.00